c instance by G2
c solution = 0111011001101101001
c Known solution cost is 962 
p cnf 19 30
w 39 88 47 89 4 7 91 67 14 64 96 37 21 52 6 71 30 61 78
-4 -18 16 0
-1 -2 15 0
15 17 13 0
5 14 -11 0
-9 1 -3 0
-14 16 -19 0
4 18 -13 0
-6 -16 19 0
-3 -2 10 0
-12 6 -11 0
7 16 9 0
-13 1 6 0
-11 18 -12 0
-4 -13 3 0
-19 -15 -13 0
15 -2 19 0
9 16 6 0
-6 -5 15 0
-2 -6 3 0
19 2 -11 0
6 -9 14 0
-4 11 18 0
-14 -4 3 0
-8 -6 9 0
2 -3 -19 0
9 15 -17 0
9 8 -12 0
-18 9 8 0
6 -16 19 0
-2 7 -10 0
